c ren 1 -> 1
c ren 2 -> 2
c ren 3 -> 3
c ren 5 -> 4
c ren 7 -> 5
c ren 8 -> 6
c ren 9 -> 7
c ren 10 -> 8
c ren 14 -> 9
c ren 15 -> 10
c ren 16 -> 11
c ren 21 -> 12
c ren 28 -> 13
c ren 31 -> 14
c ren 32 -> 15
c ren 33 -> 16
c ren 36 -> 17
c ren 37 -> 18
c ren 40 -> 19
c ren 41 -> 20
c ren 43 -> 21
c ren 46 -> 22
c ren 47 -> 23
c ren 48 -> 24
c ren 51 -> 25
c ren 52 -> 26
c ren 53 -> 27
c ren 56 -> 28
c ren 58 -> 29
c ren 61 -> 30
c ren 74 -> 31
c ren 78 -> 32
p cnf 32 85
a 1 2 3 5 6 7 9 10 11 12 13 15 17 19 22 25 28 30 0
d 20 2 3 0
d 23 2 3 0
d 26 19 22 0
d 31 17 25 0
d 32 28 30 0
e 4 8 14 16 18 21 24 27 29 0
-1 2 3 -4 0
1 -2 -3 4 0
1 2 -3 -4 0
-1 -2 3 4 0
1 -2 3 -4 0
-1 -2 -3 -4 0
1 2 3 4 0
-1 2 -3 4 0
-6 7 8 0
6 -7 8 0
-6 -7 -8 0
6 7 -8 0
2 -4 5 8 9 -10 -11 12 13 -14 0
-2 -3 -4 -5 -8 9 -10 -11 -12 -13 -14 0
-1 -4 -5 -8 -9 -10 11 -12 -13 -14 0
3 -4 5 8 9 -10 -11 12 13 -14 0
1 2 -4 -5 -8 -9 -10 11 12 -13 -14 0
1 2 -4 -5 -8 9 -10 -11 12 -13 -14 0
-1 -4 -5 -8 -9 10 -11 -12 -13 -14 0
-2 -3 -4 -5 -8 -9 10 -11 -12 -13 -14 0
-10 11 -15 16 0
1 3 -4 -5 -8 -9 -10 11 12 -13 -14 0
-2 -3 -4 5 8 9 -10 -11 -12 13 -14 0
-2 -3 -4 5 8 -9 10 -11 -12 13 -14 0
1 3 -4 -5 -8 -9 10 -11 12 -13 -14 0
1 3 -4 -5 -8 9 10 11 12 -13 -14 0
-1 -4 -5 -8 9 10 11 -12 -13 -14 0
10 -11 -15 16 0
1 3 -4 -5 -8 9 -10 -11 12 -13 -14 0
3 -4 5 8 -9 10 -11 12 13 -14 0
3 -4 5 8 -9 -10 11 12 13 -14 0
2 -4 5 8 -9 10 -11 12 13 -14 0
10 11 15 16 0
-1 -4 -5 -8 9 -10 -11 -12 -13 -14 0
-10 -11 15 16 0
-2 -3 -4 5 8 9 10 11 -12 13 -14 0
2 -4 5 8 -9 -10 11 12 13 -14 0
-2 -3 -4 -5 -8 -9 -10 11 -12 -13 -14 0
1 2 -4 -5 -8 -9 10 -11 12 -13 -14 0
3 -4 5 8 9 10 11 12 13 -14 0
-2 -3 -4 5 8 -9 -10 11 -12 13 -14 0
4 14 0
-15 -17 18 0
15 17 18 0
9 -10 -11 12 14 -16 -18 -21 -24 -27 -29 30 -31 0
-13 -19 -20 21 0
19 20 21 0
13 19 21 0
-22 -23 24 0
22 23 24 0
1 2 -4 -5 -8 9 10 11 12 -13 -14 0
9 -10 -11 -12 14 -16 -18 -21 -24 -27 -29 30 31 0
-25 -26 27 0
25 26 27 0
-2 -3 -4 -5 -8 9 10 11 -12 -13 -14 0
2 -4 5 8 9 10 11 12 13 -14 0
-15 -26 -28 29 0
26 28 29 0
15 28 29 0
-9 10 -12 14 -16 -18 -21 -24 -27 -29 -30 -31 0
-1 -5 -10 -11 -13 14 -16 -18 20 -21 -24 -27 -29 30 0
-1 5 -10 -11 13 14 -16 -18 20 -21 -24 -27 -29 30 0
1 -5 -10 -11 -13 14 -16 -18 -20 -21 -24 -27 -29 30 0
9 10 12 14 -16 -18 -21 -24 -27 -29 -30 -31 0
-9 10 -12 14 -16 -18 -21 -24 -27 -29 -30 32 0
9 10 14 -16 -18 -21 -24 -27 -29 -30 -32 0
10 12 14 -16 -18 -21 -24 -27 -29 -30 -32 0
1 5 -10 -11 13 14 -16 -18 -20 -21 -24 -27 -29 30 0
9 11 -12 14 -16 -18 -21 -24 -27 -29 -30 31 0
-9 11 12 14 -16 -18 -21 -24 -27 -29 -30 31 0
-9 11 -12 14 -16 -18 -21 -24 -27 -29 -30 32 0
9 10 -12 14 -16 -18 -21 -24 -27 -29 -30 31 0
9 11 12 14 -16 -18 -21 -24 -27 -29 -30 -31 0
9 11 14 -16 -18 -21 -24 -27 -29 -30 -32 0
-9 11 -12 14 -16 -18 -21 -24 -27 -29 -30 -31 0
-9 10 12 14 -16 -18 -21 -24 -27 -29 -30 31 0
-1 -5 11 -13 14 -16 -18 20 -21 -24 -27 -29 -30 0
1 5 11 13 14 -16 -18 -20 -21 -24 -27 -29 -30 0
11 12 14 -16 -18 -21 -24 -27 -29 -30 -32 0
-1 5 11 13 14 -16 -18 20 -21 -24 -27 -29 -30 0
1 -5 10 -13 14 -16 -18 -20 -21 -24 -27 -29 -30 0
1 -5 11 -13 14 -16 -18 -20 -21 -24 -27 -29 -30 0
-1 5 10 13 14 -16 -18 20 -21 -24 -27 -29 -30 0
-1 -5 10 -13 14 -16 -18 20 -21 -24 -27 -29 -30 0
1 5 10 13 14 -16 -18 -20 -21 -24 -27 -29 -30 0
